words_hard_train/5257.qaiger
aag 154 16 0 1 138
2
4
8
16
34
42
60
68
130
140
174
184
220
228
262
264
308
6 3 5
10 4 8
12 5 9
14 11 13
18 15 17
20 14 16
22 19 21
24 6 23
26 22 4
28 26 2
30 25 29
32 29 21
36 13 34
38 12 35
40 37 39
44 41 43
46 40 42
48 45 47
50 32 49
52 33 48
54 51 53
56 31 55
58 53 47
62 39 60
64 38 61
66 63 65
70 67 69
72 66 68
74 71 73
76 58 75
78 59 74
80 77 79
82 57 80
84 56 81
86 83 85
88 30 54
90 89 57
92 16 42
94 17 43
96 93 95
98 16 9
100 99 6
102 15 3
104 103 21
106 101 105
108 97 107
110 90 109
112 96 106
114 111 113
116 86 115
118 95 68
120 94 69
122 119 121
124 117 123
126 87 114
128 125 127
132 121 130
134 120 131
136 133 135
138 79 73
142 65 140
144 64 141
146 143 145
148 147 131
150 146 130
152 149 151
154 138 153
156 139 152
158 155 157
160 85 158
162 84 159
164 161 163
166 136 164
168 129 167
170 137 165
172 169 171
176 135 174
178 134 175
180 177 179
182 157 151
186 145 184
188 144 185
190 187 189
192 191 175
194 190 174
196 193 195
198 182 197
200 183 196
202 199 201
204 163 202
206 162 203
208 205 207
210 181 209
212 172 211
214 180 208
216 213 215
218 201 195
222 189 220
224 188 221
226 223 225
230 227 229
232 226 228
234 231 233
236 218 235
238 219 234
240 237 239
242 207 240
244 206 241
246 243 245
248 179 228
250 178 229
252 249 251
254 247 253
256 217 255
258 246 252
260 257 259
266 262 264
268 263 265
270 267 269
272 270 225
274 271 224
276 273 275
278 239 233
280 277 279
282 276 278
284 281 283
286 260 284
288 250 263
290 251 262
292 289 291
294 293 244
296 286 295
298 261 285
300 294 298
302 297 301
304 292 245
306 304 299
308 302 307
i0 1 x1[0]
i1 2 y2[0]
i2 2 y2[1]
i3 1 x1[1]
i4 2 y2[2]
i5 1 x1[2]
i6 2 y2[3]
i7 1 x1[3]
i8 1 x1[4]
i9 2 y2[4]
i10 1 x1[5]
i11 2 y2[5]
i12 2 y2[6]
i13 1 x1[6]
i14 1 x1[7]
i15 2 y2[7]
o0 bv[0]
c
simplified
  >=
    add
      1
      unary minus
        1 x1
    subtract
      1 x1
      2 y2
