words_hard_train/5257.qaiger.qdimacs
p cnf 154 415
a 1 34 65 131 8 114 21 87 0
e 2 3 4 5 6 7 9 10 11 12 13 14 15 16 17 18 19 20 22 23 24 25 26 27 28 29 30 31 32 33 35 36 37 38 39 40 41 42 43 44 45 46 47 48 49 50 51 52 53 54 55 56 57 58 59 60 61 62 63 64 66 67 68 69 70 71 72 73 74 75 76 77 78 79 80 81 82 83 84 85 86 88 89 90 91 92 93 94 95 96 97 98 99 100 101 102 103 104 105 106 107 108 109 110 111 112 113 115 116 117 118 119 120 121 122 123 124 125 126 127 128 129 130 132 133 134 135 136 137 138 139 140 141 142 143 144 145 146 147 148 149 150 151 152 153 154 0
1 2 3 0
-1 -3 0
-2 -3 0
-2 -4 5 0
2 -5 0
4 -5 0
2 4 6 0
-2 -6 0
-4 -6 0
5 6 7 0
-5 -7 0
-6 -7 0
7 8 9 0
-7 -9 0
-8 -9 0
-7 -8 10 0
7 -10 0
8 -10 0
9 10 11 0
-9 -11 0
-10 -11 0
-3 11 12 0
3 -12 0
-11 -12 0
-11 -2 13 0
11 -13 0
2 -13 0
-13 -1 14 0
13 -14 0
1 -14 0
12 14 15 0
-12 -15 0
-14 -15 0
14 10 16 0
-14 -16 0
-10 -16 0
6 -17 18 0
-6 -18 0
17 -18 0
-6 17 19 0
6 -19 0
-17 -19 0
18 19 20 0
-18 -20 0
-19 -20 0
20 21 22 0
-20 -22 0
-21 -22 0
-20 -21 23 0
20 -23 0
21 -23 0
22 23 24 0
-22 -24 0
-23 -24 0
-16 24 25 0
16 -25 0
-24 -25 0
16 -24 26 0
-16 -26 0
24 -26 0
25 26 27 0
-25 -27 0
-26 -27 0
15 27 28 0
-15 -28 0
-27 -28 0
26 23 29 0
-26 -29 0
-23 -29 0
19 -30 31 0
-19 -31 0
30 -31 0
-19 30 32 0
19 -32 0
-30 -32 0
31 32 33 0
-31 -33 0
-32 -33 0
33 34 35 0
-33 -35 0
-34 -35 0
-33 -34 36 0
33 -36 0
34 -36 0
35 36 37 0
-35 -37 0
-36 -37 0
-29 37 38 0
29 -38 0
-37 -38 0
29 -37 39 0
-29 -39 0
37 -39 0
38 39 40 0
-38 -40 0
-39 -40 0
28 -40 41 0
-28 -41 0
40 -41 0
-28 40 42 0
28 -42 0
-40 -42 0
41 42 43 0
-41 -43 0
-42 -43 0
-15 -27 44 0
15 -44 0
27 -44 0
44 28 45 0
-44 -45 0
-28 -45 0
-8 -21 46 0
8 -46 0
21 -46 0
8 21 47 0
-8 -47 0
-21 -47 0
46 47 48 0
-46 -48 0
-47 -48 0
-8 4 49 0
8 -49 0
-4 -49 0
49 -3 50 0
-49 -50 0
3 -50 0
7 1 51 0
-7 -51 0
-1 -51 0
51 10 52 0
-51 -52 0
-10 -52 0
50 52 53 0
-50 -53 0
-52 -53 0
48 53 54 0
-48 -54 0
-53 -54 0
-45 54 55 0
45 -55 0
-54 -55 0
-48 -53 56 0
48 -56 0
53 -56 0
55 56 57 0
-55 -57 0
-56 -57 0
-43 57 58 0
43 -58 0
-57 -58 0
47 -34 59 0
-47 -59 0
34 -59 0
-47 34 60 0
47 -60 0
-34 -60 0
59 60 61 0
-59 -61 0
-60 -61 0
58 61 62 0
-58 -62 0
-61 -62 0
43 -57 63 0
-43 -63 0
57 -63 0
62 63 64 0
-62 -64 0
-63 -64 0
60 -65 66 0
-60 -66 0
65 -66 0
-60 65 67 0
60 -67 0
-65 -67 0
66 67 68 0
-66 -68 0
-67 -68 0
39 36 69 0
-39 -69 0
-36 -69 0
32 -70 71 0
-32 -71 0
70 -71 0
-32 70 72 0
32 -72 0
-70 -72 0
71 72 73 0
-71 -73 0
-72 -73 0
73 65 74 0
-73 -74 0
-65 -74 0
-73 -65 75 0
73 -75 0
65 -75 0
74 75 76 0
-74 -76 0
-75 -76 0
-69 76 77 0
69 -77 0
-76 -77 0
69 -76 78 0
-69 -78 0
76 -78 0
77 78 79 0
-77 -79 0
-78 -79 0
42 -79 80 0
-42 -80 0
79 -80 0
-42 79 81 0
42 -81 0
-79 -81 0
80 81 82 0
-80 -82 0
-81 -82 0
-68 -82 83 0
68 -83 0
82 -83 0
64 83 84 0
-64 -84 0
-83 -84 0
68 82 85 0
-68 -85 0
-82 -85 0
84 85 86 0
-84 -86 0
-85 -86 0
67 -87 88 0
-67 -88 0
87 -88 0
-67 87 89 0
67 -89 0
-87 -89 0
88 89 90 0
-88 -90 0
-89 -90 0
78 75 91 0
-78 -91 0
-75 -91 0
72 -92 93 0
-72 -93 0
92 -93 0
-72 92 94 0
72 -94 0
-92 -94 0
93 94 95 0
-93 -95 0
-94 -95 0
95 87 96 0
-95 -96 0
-87 -96 0
-95 -87 97 0
95 -97 0
87 -97 0
96 97 98 0
-96 -98 0
-97 -98 0
-91 98 99 0
91 -99 0
-98 -99 0
91 -98 100 0
-91 -100 0
98 -100 0
99 100 101 0
-99 -101 0
-100 -101 0
81 -101 102 0
-81 -102 0
101 -102 0
-81 101 103 0
81 -103 0
-101 -103 0
102 103 104 0
-102 -104 0
-103 -104 0
90 104 105 0
-90 -105 0
-104 -105 0
-86 105 106 0
86 -106 0
-105 -106 0
-90 -104 107 0
90 -107 0
104 -107 0
106 107 108 0
-106 -108 0
-107 -108 0
100 97 109 0
-100 -109 0
-97 -109 0
94 -110 111 0
-94 -111 0
110 -111 0
-94 110 112 0
94 -112 0
-110 -112 0
111 112 113 0
-111 -113 0
-112 -113 0
113 114 115 0
-113 -115 0
-114 -115 0
-113 -114 116 0
113 -116 0
114 -116 0
115 116 117 0
-115 -117 0
-116 -117 0
-109 117 118 0
109 -118 0
-117 -118 0
109 -117 119 0
-109 -119 0
117 -119 0
118 119 120 0
-118 -120 0
-119 -120 0
103 -120 121 0
-103 -121 0
120 -121 0
-103 120 122 0
103 -122 0
-120 -122 0
121 122 123 0
-121 -123 0
-122 -123 0
89 -114 124 0
-89 -124 0
114 -124 0
-89 114 125 0
89 -125 0
-114 -125 0
124 125 126 0
-124 -126 0
-125 -126 0
123 126 127 0
-123 -127 0
-126 -127 0
108 127 128 0
-108 -128 0
-127 -128 0
-123 -126 129 0
123 -129 0
126 -129 0
128 129 130 0
-128 -130 0
-129 -130 0
-131 -132 133 0
131 -133 0
132 -133 0
131 132 134 0
-131 -134 0
-132 -134 0
133 134 135 0
-133 -135 0
-134 -135 0
-135 112 136 0
135 -136 0
-112 -136 0
135 -112 137 0
-135 -137 0
112 -137 0
136 137 138 0
-136 -138 0
-137 -138 0
119 116 139 0
-119 -139 0
-116 -139 0
138 139 140 0
-138 -140 0
-139 -140 0
-138 -139 141 0
138 -141 0
139 -141 0
140 141 142 0
-140 -142 0
-141 -142 0
-130 -142 143 0
130 -143 0
142 -143 0
-125 131 144 0
125 -144 0
-131 -144 0
125 -131 145 0
-125 -145 0
131 -145 0
144 145 146 0
-144 -146 0
-145 -146 0
146 -122 147 0
-146 -147 0
122 -147 0
-143 147 148 0
143 -148 0
-147 -148 0
130 142 149 0
-130 -149 0
-142 -149 0
-147 -149 150 0
147 -150 0
149 -150 0
148 150 151 0
-148 -151 0
-150 -151 0
-146 122 152 0
146 -152 0
-122 -152 0
-152 149 153 0
152 -153 0
-149 -153 0
-151 153 154 0
151 -154 0
-153 -154 0
154 0
